123830729 -1 -2 3 0
69253605 4 0
159287660 -5 0
55076506 -2 5 -4 0
54489722 6 0
36315258 6 0
135391491 -6 0
108422674 -1 0
251000118 -5 0
156811346 -3 0
244212609 -5 0
197221276 2 0
243377911 -7 0
234833377 2 0
64088701 5 0
182579350 -1 0
170754375 3 0
214123688 -7 0
243985813 -1 0
266882226 3 0
h 3 -2 1 0
h 1 5 -4 0
178517145 -8 0
162381328 -9 0
107803357 -10 0
274856302 -11 0
291254307 -12 0
68474756 -13 0
